(declare-const s (Seq Int))
(assert (<= (seq.len s) 5))
(assert (>= (seq.len s) 1))
(assert (forall ((i Int)) (=> (and (<= 0 i) (< i (seq.len s))) (> (seq.nth s i) 0))))
(assert (<= (seq.nth s 0) 0))
(check-sat)
